% Generated by MiniZinc 2.9.4
% Solver library: 
% Command line invocation: /home/vro5/minizinc-custom/bin/minizinc -O3 -c --solver mzn-fzn -I /home/vro5/Coding/minizincHLstdlib/std --allow-unbounded-vars /home/vro5/Coding/AgenticSolvers/mznc2025_probs/carpet-cutting/cc_base.mzn /home/vro5/Coding/AgenticSolvers/mznc2025_probs/carpet-cutting/cc_rnd_8_2.json 

predicate fzn_cumulative(array [int] of var int: s,array [int] of var int: d,array [int] of var int: r,var int: b);
predicate fzn_diffn(array [int] of var int: x,array [int] of var int: y,array [int] of var int: dx,array [int] of var int: dy);
bool: X_INTRODUCED_40_ = true;
bool: X_INTRODUCED_43_ = true;
bool: X_INTRODUCED_48_ = true;
bool: X_INTRODUCED_51_ = true;
bool: X_INTRODUCED_52_ = true;
bool: X_INTRODUCED_54_ = true;
array [1..2] of int: X_INTRODUCED_114_ = [1,-1];
array [1..3] of int: X_INTRODUCED_125_ = [1,-30,-1];
array [1..2] of int: X_INTRODUCED_126_ = [1,30];
array [1..3] of int: X_INTRODUCED_148_ = [1,-480,-1];
array [1..2] of int: X_INTRODUCED_149_ = [1,480];
array [1..3] of int: X_INTRODUCED_155_ = [1,60,-1];
array [1..2] of int: X_INTRODUCED_156_ = [1,-60];
array [1..3] of int: X_INTRODUCED_163_ = [1,200,-1];
array [1..2] of int: X_INTRODUCED_165_ = [1,-200];
array [1..4] of int: X_INTRODUCED_172_ = [0,0,0,0];
array [1..4] of int: X_INTRODUCED_177_ = [0,0,-1,-1];
array [1..4] of int: X_INTRODUCED_179_ = [0,-1,0,0];
array [1..4] of int: X_INTRODUCED_182_ = [0,0,0,200];
array [1..3] of int: X_INTRODUCED_185_ = [1,-1,-1];
array [1..4] of int: X_INTRODUCED_186_ = [0,0,200,0];
array [1..4] of int: X_INTRODUCED_189_ = [0,200,200,0];
array [1..4] of int: X_INTRODUCED_192_ = [200,200,0,0];
var 788..2980: objective:: output_var;
var 0..2620: X_INTRODUCED_16_;
var 0..2710: X_INTRODUCED_17_;
var 0..2710: X_INTRODUCED_18_;
var 0..2620: X_INTRODUCED_19_;
var 0..2710: X_INTRODUCED_20_;
var 0..2860: X_INTRODUCED_21_;
var 0..2680: X_INTRODUCED_22_;
var 0..2580: X_INTRODUCED_23_;
var 0..640: X_INTRODUCED_24_;
var 0..730: X_INTRODUCED_25_;
var 0..730: X_INTRODUCED_26_;
var 0..640: X_INTRODUCED_27_;
var 0..730: X_INTRODUCED_28_;
var 0..880: X_INTRODUCED_29_;
var 0..700: X_INTRODUCED_30_;
var 0..600: X_INTRODUCED_31_;
var 1..4: X_INTRODUCED_33_;
var 1..4: X_INTRODUCED_34_;
var 1..2: X_INTRODUCED_36_;
var {1,3,4}: X_INTRODUCED_37_;
var 1..2: X_INTRODUCED_38_;
var 1..4: X_INTRODUCED_39_;
var bool: X_INTRODUCED_41_:: is_defined_var;
var bool: X_INTRODUCED_42_:: is_defined_var;
var bool: X_INTRODUCED_44_:: is_defined_var;
var bool: X_INTRODUCED_45_:: is_defined_var;
var bool: X_INTRODUCED_46_:: is_defined_var;
var bool: X_INTRODUCED_47_:: is_defined_var;
var bool: X_INTRODUCED_49_:: is_defined_var;
var bool: X_INTRODUCED_50_:: is_defined_var;
var bool: X_INTRODUCED_53_:: is_defined_var;
var bool: X_INTRODUCED_55_:: is_defined_var;
var 240..2860: X_INTRODUCED_58_:: is_defined_var;
var 240..2860: X_INTRODUCED_63_:: is_defined_var;
var 0..2780: X_INTRODUCED_67_:: is_defined_var;
var 0..2780: X_INTRODUCED_68_:: is_defined_var;
var 60..700: X_INTRODUCED_70_:: is_defined_var;
var 60..700: X_INTRODUCED_75_:: is_defined_var;
var 0..800: X_INTRODUCED_80_:: is_defined_var;
var 0..800: X_INTRODUCED_81_:: is_defined_var;
var 0..1: X_INTRODUCED_84_ ::var_is_introduced :: is_defined_var;
var 270..300: X_INTRODUCED_85_ ::var_is_introduced :: is_defined_var;
var 0..1: X_INTRODUCED_86_ ::var_is_introduced :: is_defined_var;
var 270..300: X_INTRODUCED_87_ ::var_is_introduced :: is_defined_var;
var 0..1: X_INTRODUCED_88_ ::var_is_introduced :: is_defined_var;
var 270..300: X_INTRODUCED_89_ ::var_is_introduced :: is_defined_var;
var 0..1: X_INTRODUCED_91_ ::var_is_introduced :: is_defined_var;
var 120..600: X_INTRODUCED_92_ ::var_is_introduced :: is_defined_var;
var 0..1: X_INTRODUCED_93_ ::var_is_introduced :: is_defined_var;
var 300..360: X_INTRODUCED_94_ ::var_is_introduced :: is_defined_var;
var 0..1: X_INTRODUCED_96_ ::var_is_introduced :: is_defined_var;
var 200..400: X_INTRODUCED_97_ ::var_is_introduced :: is_defined_var;
var 270..300: X_INTRODUCED_100_ ::var_is_introduced :: is_defined_var;
var 270..300: X_INTRODUCED_101_ ::var_is_introduced :: is_defined_var;
var 270..300: X_INTRODUCED_102_ ::var_is_introduced :: is_defined_var;
var 120..600: X_INTRODUCED_104_ ::var_is_introduced :: is_defined_var;
var 300..360: X_INTRODUCED_105_ ::var_is_introduced :: is_defined_var;
var 200..400: X_INTRODUCED_107_ ::var_is_introduced :: is_defined_var;
var {0,200}: X_INTRODUCED_183_ ::var_is_introduced :: is_defined_var;
var {0,200}: X_INTRODUCED_187_ ::var_is_introduced :: is_defined_var;
var {0,200}: X_INTRODUCED_190_ ::var_is_introduced :: is_defined_var;
var {0,200}: X_INTRODUCED_193_ ::var_is_introduced :: is_defined_var;
array [1..8] of var int: rm_x:: output_array([1..8]) = [X_INTRODUCED_16_,X_INTRODUCED_17_,X_INTRODUCED_18_,X_INTRODUCED_19_,X_INTRODUCED_20_,X_INTRODUCED_21_,X_INTRODUCED_22_,X_INTRODUCED_23_];
array [1..8] of var int: rm_y:: output_array([1..8]) = [X_INTRODUCED_24_,X_INTRODUCED_25_,X_INTRODUCED_26_,X_INTRODUCED_27_,X_INTRODUCED_28_,X_INTRODUCED_29_,X_INTRODUCED_30_,X_INTRODUCED_31_];
array [1..8] of var int: rm_vori:: output_array([1..8]) = [1,X_INTRODUCED_33_,X_INTRODUCED_34_,1,X_INTRODUCED_36_,X_INTRODUCED_37_,X_INTRODUCED_38_,X_INTRODUCED_39_];
array [1..8] of var bool: rm_ori_0_or_180 = [true,X_INTRODUCED_41_,X_INTRODUCED_42_,true,X_INTRODUCED_44_,X_INTRODUCED_45_,X_INTRODUCED_46_,X_INTRODUCED_47_];
array [1..8] of var bool: rm_ori_0_or_90 = [true,X_INTRODUCED_49_,X_INTRODUCED_50_,true,true,X_INTRODUCED_53_,true,X_INTRODUCED_55_];
array [1..13] of var int: rm_rec_x:: output_array([1..13]) = [X_INTRODUCED_16_,X_INTRODUCED_16_,X_INTRODUCED_58_,X_INTRODUCED_17_,X_INTRODUCED_18_,X_INTRODUCED_19_,X_INTRODUCED_19_,X_INTRODUCED_63_,X_INTRODUCED_20_,X_INTRODUCED_21_,X_INTRODUCED_22_,X_INTRODUCED_67_,X_INTRODUCED_68_];
array [1..13] of var int: rm_rec_y:: output_array([1..13]) = [X_INTRODUCED_24_,X_INTRODUCED_70_,X_INTRODUCED_24_,X_INTRODUCED_25_,X_INTRODUCED_26_,X_INTRODUCED_27_,X_INTRODUCED_75_,X_INTRODUCED_27_,X_INTRODUCED_28_,X_INTRODUCED_29_,X_INTRODUCED_30_,X_INTRODUCED_80_,X_INTRODUCED_81_];
array [1..16] of var int: X_INTRODUCED_108_ ::var_is_introduced  = [X_INTRODUCED_24_,X_INTRODUCED_16_,X_INTRODUCED_28_,X_INTRODUCED_20_,X_INTRODUCED_29_,X_INTRODUCED_21_,X_INTRODUCED_25_,X_INTRODUCED_17_,X_INTRODUCED_30_,X_INTRODUCED_22_,X_INTRODUCED_31_,X_INTRODUCED_23_,X_INTRODUCED_27_,X_INTRODUCED_19_,X_INTRODUCED_26_,X_INTRODUCED_18_];
array [1..1] of var int: X_INTRODUCED_109_ ::var_is_introduced  = [objective];
array [1..13] of var int: X_INTRODUCED_195_ ::var_is_introduced  = [60,300,60,X_INTRODUCED_100_,X_INTRODUCED_101_,60,300,60,X_INTRODUCED_102_,X_INTRODUCED_104_,X_INTRODUCED_105_,X_INTRODUCED_107_,200];
array [1..13] of var int: X_INTRODUCED_196_ ::var_is_introduced  = [120,360,120,X_INTRODUCED_85_,X_INTRODUCED_87_,120,360,120,X_INTRODUCED_89_,X_INTRODUCED_92_,X_INTRODUCED_94_,X_INTRODUCED_97_,200];
constraint int_lin_le(X_INTRODUCED_114_,[X_INTRODUCED_16_,objective],-360);
constraint int_lin_le(X_INTRODUCED_114_,[X_INTRODUCED_16_,objective],-120);
constraint int_lin_le(X_INTRODUCED_114_,[X_INTRODUCED_16_,objective],-360);
constraint int_lin_le(X_INTRODUCED_114_,[X_INTRODUCED_58_,objective],-120);
constraint int_lin_le(X_INTRODUCED_125_,[X_INTRODUCED_17_,X_INTRODUCED_84_,objective],-300);
constraint int_lin_le(X_INTRODUCED_126_,[X_INTRODUCED_25_,X_INTRODUCED_84_],730);
constraint int_lin_le(X_INTRODUCED_125_,[X_INTRODUCED_17_,X_INTRODUCED_84_,objective],-300);
constraint int_lin_le(X_INTRODUCED_126_,[X_INTRODUCED_25_,X_INTRODUCED_84_],730);
constraint int_lin_le(X_INTRODUCED_125_,[X_INTRODUCED_18_,X_INTRODUCED_86_,objective],-300);
constraint int_lin_le(X_INTRODUCED_126_,[X_INTRODUCED_26_,X_INTRODUCED_86_],730);
constraint int_lin_le(X_INTRODUCED_125_,[X_INTRODUCED_18_,X_INTRODUCED_86_,objective],-300);
constraint int_lin_le(X_INTRODUCED_126_,[X_INTRODUCED_26_,X_INTRODUCED_86_],730);
constraint int_lin_le(X_INTRODUCED_114_,[X_INTRODUCED_19_,objective],-360);
constraint int_lin_le(X_INTRODUCED_114_,[X_INTRODUCED_19_,objective],-120);
constraint int_lin_le(X_INTRODUCED_114_,[X_INTRODUCED_19_,objective],-360);
constraint int_lin_le(X_INTRODUCED_114_,[X_INTRODUCED_63_,objective],-120);
constraint int_lin_le(X_INTRODUCED_125_,[X_INTRODUCED_20_,X_INTRODUCED_88_,objective],-300);
constraint int_lin_le(X_INTRODUCED_126_,[X_INTRODUCED_28_,X_INTRODUCED_88_],730);
constraint int_lin_le(X_INTRODUCED_125_,[X_INTRODUCED_20_,X_INTRODUCED_88_,objective],-300);
constraint int_lin_le(X_INTRODUCED_126_,[X_INTRODUCED_28_,X_INTRODUCED_88_],730);
constraint int_lin_le(X_INTRODUCED_148_,[X_INTRODUCED_21_,X_INTRODUCED_91_,objective],-600);
constraint int_lin_le(X_INTRODUCED_149_,[X_INTRODUCED_29_,X_INTRODUCED_91_],880);
constraint int_lin_le(X_INTRODUCED_148_,[X_INTRODUCED_21_,X_INTRODUCED_91_,objective],-600);
constraint int_lin_le(X_INTRODUCED_149_,[X_INTRODUCED_29_,X_INTRODUCED_91_],880);
constraint int_lin_le(X_INTRODUCED_155_,[X_INTRODUCED_22_,X_INTRODUCED_93_,objective],-300);
constraint int_lin_le(X_INTRODUCED_156_,[X_INTRODUCED_30_,X_INTRODUCED_93_],640);
constraint int_lin_le(X_INTRODUCED_155_,[X_INTRODUCED_22_,X_INTRODUCED_93_,objective],-300);
constraint int_lin_le(X_INTRODUCED_156_,[X_INTRODUCED_30_,X_INTRODUCED_93_],640);
constraint int_lin_le(X_INTRODUCED_114_,[X_INTRODUCED_23_,objective],-400);
constraint int_lin_le(X_INTRODUCED_163_,[X_INTRODUCED_67_,X_INTRODUCED_96_,objective],-200);
constraint int_lin_le(X_INTRODUCED_165_,[X_INTRODUCED_80_,X_INTRODUCED_96_],600);
constraint int_lin_le(X_INTRODUCED_114_,[X_INTRODUCED_68_,objective],-200);
constraint int_lin_eq(X_INTRODUCED_114_,[X_INTRODUCED_70_,X_INTRODUCED_24_],60):: defines_var(X_INTRODUCED_70_);
constraint int_lin_eq(X_INTRODUCED_114_,[X_INTRODUCED_58_,X_INTRODUCED_16_],240):: defines_var(X_INTRODUCED_58_);
constraint array_int_element(X_INTRODUCED_33_,X_INTRODUCED_172_,0);
constraint array_int_element(X_INTRODUCED_34_,X_INTRODUCED_172_,0);
constraint int_lin_eq(X_INTRODUCED_114_,[X_INTRODUCED_75_,X_INTRODUCED_27_],60):: defines_var(X_INTRODUCED_75_);
constraint int_lin_eq(X_INTRODUCED_114_,[X_INTRODUCED_63_,X_INTRODUCED_19_],240):: defines_var(X_INTRODUCED_63_);
constraint array_int_element(X_INTRODUCED_36_,X_INTRODUCED_177_,0);
constraint array_int_element(X_INTRODUCED_37_,X_INTRODUCED_179_,0);
constraint array_int_element(X_INTRODUCED_38_,X_INTRODUCED_177_,0);
constraint array_int_element(X_INTRODUCED_39_,X_INTRODUCED_182_,X_INTRODUCED_183_):: defines_var(X_INTRODUCED_183_);
constraint int_lin_eq(X_INTRODUCED_185_,[X_INTRODUCED_67_,X_INTRODUCED_23_,X_INTRODUCED_183_],0):: defines_var(X_INTRODUCED_67_);
constraint array_int_element(X_INTRODUCED_39_,X_INTRODUCED_186_,X_INTRODUCED_187_):: defines_var(X_INTRODUCED_187_);
constraint int_lin_eq(X_INTRODUCED_185_,[X_INTRODUCED_80_,X_INTRODUCED_31_,X_INTRODUCED_187_],0):: defines_var(X_INTRODUCED_80_);
constraint array_int_element(X_INTRODUCED_39_,X_INTRODUCED_189_,X_INTRODUCED_190_):: defines_var(X_INTRODUCED_190_);
constraint int_lin_eq(X_INTRODUCED_185_,[X_INTRODUCED_68_,X_INTRODUCED_23_,X_INTRODUCED_190_],0):: defines_var(X_INTRODUCED_68_);
constraint array_int_element(X_INTRODUCED_39_,X_INTRODUCED_192_,X_INTRODUCED_193_):: defines_var(X_INTRODUCED_193_);
constraint int_lin_eq(X_INTRODUCED_185_,[X_INTRODUCED_81_,X_INTRODUCED_31_,X_INTRODUCED_193_],0):: defines_var(X_INTRODUCED_81_);
constraint fzn_cumulative(rm_rec_x,X_INTRODUCED_196_,X_INTRODUCED_195_,1000);
constraint fzn_cumulative(rm_rec_y,X_INTRODUCED_195_,X_INTRODUCED_196_,objective);
constraint fzn_diffn(rm_rec_x,rm_rec_y,X_INTRODUCED_196_,X_INTRODUCED_195_);
constraint set_in_reif(X_INTRODUCED_33_,{1,3},X_INTRODUCED_41_):: defines_var(X_INTRODUCED_41_);
constraint set_in_reif(X_INTRODUCED_34_,{1,3},X_INTRODUCED_42_):: defines_var(X_INTRODUCED_42_);
constraint set_in_reif(X_INTRODUCED_36_,{1,3},X_INTRODUCED_44_):: defines_var(X_INTRODUCED_44_);
constraint set_in_reif(X_INTRODUCED_37_,{1,3},X_INTRODUCED_45_):: defines_var(X_INTRODUCED_45_);
constraint set_in_reif(X_INTRODUCED_38_,{1,3},X_INTRODUCED_46_):: defines_var(X_INTRODUCED_46_);
constraint set_in_reif(X_INTRODUCED_39_,{1,3},X_INTRODUCED_47_):: defines_var(X_INTRODUCED_47_);
constraint set_in_reif(X_INTRODUCED_33_,1..2,X_INTRODUCED_49_):: defines_var(X_INTRODUCED_49_);
constraint set_in_reif(X_INTRODUCED_34_,1..2,X_INTRODUCED_50_):: defines_var(X_INTRODUCED_50_);
constraint set_in_reif(X_INTRODUCED_37_,1..2,X_INTRODUCED_53_):: defines_var(X_INTRODUCED_53_);
constraint set_in_reif(X_INTRODUCED_39_,1..2,X_INTRODUCED_55_):: defines_var(X_INTRODUCED_55_);
constraint bool2int(X_INTRODUCED_41_,X_INTRODUCED_84_):: defines_var(X_INTRODUCED_84_);
constraint int_lin_eq([-30,-1],[X_INTRODUCED_84_,X_INTRODUCED_85_],-300):: defines_var(X_INTRODUCED_85_);
constraint bool2int(X_INTRODUCED_42_,X_INTRODUCED_86_):: defines_var(X_INTRODUCED_86_);
constraint int_lin_eq([-30,-1],[X_INTRODUCED_86_,X_INTRODUCED_87_],-300):: defines_var(X_INTRODUCED_87_);
constraint bool2int(X_INTRODUCED_44_,X_INTRODUCED_88_):: defines_var(X_INTRODUCED_88_);
constraint int_lin_eq([-30,-1],[X_INTRODUCED_88_,X_INTRODUCED_89_],-300):: defines_var(X_INTRODUCED_89_);
constraint bool2int(X_INTRODUCED_45_,X_INTRODUCED_91_):: defines_var(X_INTRODUCED_91_);
constraint int_lin_eq([-480,-1],[X_INTRODUCED_91_,X_INTRODUCED_92_],-600):: defines_var(X_INTRODUCED_92_);
constraint bool2int(X_INTRODUCED_46_,X_INTRODUCED_93_):: defines_var(X_INTRODUCED_93_);
constraint int_lin_eq([60,-1],[X_INTRODUCED_93_,X_INTRODUCED_94_],-300):: defines_var(X_INTRODUCED_94_);
constraint bool2int(X_INTRODUCED_47_,X_INTRODUCED_96_):: defines_var(X_INTRODUCED_96_);
constraint int_lin_eq([200,-1],[X_INTRODUCED_96_,X_INTRODUCED_97_],-200):: defines_var(X_INTRODUCED_97_);
constraint int_lin_eq([30,-1],[X_INTRODUCED_84_,X_INTRODUCED_100_],-270):: defines_var(X_INTRODUCED_100_);
constraint int_lin_eq([30,-1],[X_INTRODUCED_86_,X_INTRODUCED_101_],-270):: defines_var(X_INTRODUCED_101_);
constraint int_lin_eq([30,-1],[X_INTRODUCED_88_,X_INTRODUCED_102_],-270):: defines_var(X_INTRODUCED_102_);
constraint int_lin_eq([480,-1],[X_INTRODUCED_91_,X_INTRODUCED_104_],-120):: defines_var(X_INTRODUCED_104_);
constraint int_lin_eq([-60,-1],[X_INTRODUCED_93_,X_INTRODUCED_105_],-360):: defines_var(X_INTRODUCED_105_);
constraint int_lin_eq([-200,-1],[X_INTRODUCED_96_,X_INTRODUCED_107_],-400):: defines_var(X_INTRODUCED_107_);
solve :: seq_search([bool_search(rm_ori_0_or_180,input_order,indomain_max,complete),bool_search(rm_ori_0_or_90,input_order,indomain_max,complete),int_search(X_INTRODUCED_108_,input_order,indomain_min,complete),int_search(X_INTRODUCED_109_,input_order,indomain_min,complete)]) minimize objective;
